data;
set WEIGHTS := x0 x1 x2 x3 x4 x5 x6 x7 x8 x9 x10 x11 x12 x13 x14 x15 x16 x17;
param:  cost :=
  x0  342
  x1  343
  x2  344
  x3  345
  x4  346
  x5  347
  x6  348
  x7  349
  x8  350
  x9  351
  x10  352
  x11  353
  x12  354
  x13  355
  x14  356
  x15  357
  x16  358
  x17  359;
param cap := 3060;